g9 10 1 0 102 20081213 0 4 0 500	# problem tmp
 103 102 1 8 49	# vars, constraints, objectives, ranges, eqns
 49 0 45 0	# nonlinear constrs, objs; ccons: lin, nonlin
 0 0	# network constraints: nonlinear, linear
 37 0 0	# nonlinear vars in constraints, objectives, both
 0 0 0 1	# linear network variables; functions; arith, flags
 0 0 0 0 0	# discrete variables: binary, integer, nonlinear (b,c,o)
 457 24	# nonzeros in Jacobian, gradients
 0 0	# max name lengths: constraints, variables
 0 80 0 67 0	# common exprs: b,c,o,c1,o1
V103 1 0
0 0.25
n0.375
V104 1 0
0 0.5
n0.25
V105 1 0
0 0.75
n0.125
V106 1 0
1 0.25
n0.375
V107 1 0
1 0.5
n0.25
V108 1 0
1 0.75
n0.125
V109 1 0
1 1
n0
V110 1 0
2 0.25
n0.375
V111 1 0
2 0.5
n0.25
V112 1 0
2 0.75
n0.125
V113 1 0
2 1
n0
V114 1 0
3 0.25
n0.375
V115 1 0
3 0.5
n0.25
V116 1 0
3 0.75
n0.125
V117 1 0
3 1
n0
V118 1 0
4 0.25
n0.375
V119 1 0
4 0.5
n0.25
V120 1 0
4 0.75
n0.125
V121 1 0
4 1
n0
V122 1 0
5 0.25
n0.375
V123 1 0
5 0.5
n0.25
V124 1 0
5 0.75
n0.125
V125 1 0
5 1
n0
V126 1 0
6 0.25
n0.375
V127 1 0
6 0.5
n0.25
V128 1 0
6 0.75
n0.125
V129 1 0
6 1
n0
V130 1 0
7 0.25
n0.375
V131 1 0
7 0.5
n0.25
V132 1 0
7 0.75
n0.125
V133 1 0
8 0.25
n0.375
V134 1 0
8 0.5
n0.25
V135 1 0
1 0.03125
n-0.015625
V136 1 0
1 0.03125
n-0.015625
V137 1 0
1 0.03125
n-0.015625
V138 1 0
1 0.03125
n-0.015625
V139 1 0
2 0.03125
n-0.015625
V140 1 0
1 0.03125
n-0.015625
V141 1 0
2 0.03125
n-0.015625
V142 1 0
1 0.03125
n-0.015625
V143 1 0
2 0.03125
n-0.015625
V144 1 0
1 0.03125
n-0.015625
V145 1 0
2 0.03125
n-0.015625
V146 1 0
3 0.03125
n-0.015625
V147 1 0
2 0.03125
n-0.015625
V148 1 0
3 0.03125
n-0.015625
V149 1 0
2 0.03125
n-0.015625
V150 1 0
3 0.03125
n-0.015625
V151 1 0
2 0.03125
n-0.015625
V152 1 0
3 0.03125
n-0.015625
V153 1 0
4 0.03125
n-0.015625
V154 1 0
3 0.03125
n-0.015625
V155 1 0
4 0.03125
n-0.015625
V156 1 0
3 0.03125
n-0.015625
V157 1 0
4 0.03125
n-0.015625
V158 1 0
3 0.03125
n-0.015625
V159 1 0
4 0.03125
n-0.015625
V160 1 0
5 0.03125
n-0.015625
V161 1 0
4 0.03125
n-0.015625
V162 1 0
5 0.03125
n-0.015625
V163 1 0
4 0.03125
n-0.015625
V164 1 0
5 0.03125
n-0.015625
V165 1 0
4 0.03125
n-0.015625
V166 1 0
5 0.03125
n-0.015625
V167 1 0
6 0.03125
n-0.015625
V168 1 0
5 0.03125
n-0.015625
V169 1 0
6 0.03125
n-0.015625
V170 1 0
5 0.03125
n-0.015625
V171 1 0
6 0.03125
n-0.015625
V172 1 0
5 0.03125
n-0.015625
V173 1 0
6 0.03125
n-0.015625
V174 1 0
7 0.03125
n-0.015625
V175 1 0
6 0.03125
n-0.015625
V176 1 0
7 0.03125
n-0.015625
V177 1 0
6 0.03125
n-0.015625
V178 1 0
7 0.03125
n-0.015625
V179 1 0
6 0.03125
n-0.015625
V180 1 0
7 0.03125
n-0.015625
V181 1 0
7 0.03125
n-0.015625
V182 1 0
7 0.03125
n-0.015625
V183 1 1
0 0.03125
n-0.015625
V184 0 1
o54
3
o3
o54
3
o2
o0
n0.015625
o5
o0
n-0.5
v106
n2
v9
o2
n-0.015625
v10
o16
o2
o5
o0
n-0.5
v106
n2
v13
o2
n2
v138
o3
o0
o2
o0
n0.015625
o5
o1
v103
v106
n2
v9
o2
o54
3
n-0.015625
o16
o5
o1
v103
v106
n2
o2
o1
v103
v106
o1
n0.5
v106
v10
o2
n2
v135
o3
o2
o5
o0
n-0.5
v103
n2
v9
o2
n2
v183
C0
o16
v184
V185 1 2
0 0.03125
n-0.015625
V186 0 2
o54
6
o3
o0
o2
o1
o54
3
n0.015625
o5
o1
v103
v106
n2
o5
o1
n0.5
v106
n2
o2
o2
n2
o1
v103
v106
o1
n0.5
v106
v10
o2
o54
3
n-0.015625
o16
o5
o1
v103
v106
n2
o2
o1
v103
v106
o1
n0.5
v106
v9
o2
n2
v135
o3
o54
3
o2
o1
o54
3
n0.015625
o5
o1
v110
v106
n2
o5
o1
v107
v106
n2
o2
o2
n2
o1
v110
v106
o1
v107
v106
v10
o2
o54
3
n-0.015625
o16
o5
o1
v110
v106
n2
o2
o1
v110
v106
o1
v107
v106
v11
o2
o0
o16
o5
o1
v107
v106
n2
o2
o1
v110
v106
o1
v107
v106
v14
o2
n2
v140
o3
o0
o2
o0
n0.015625
o5
o1
v104
v107
n2
v10
o2
o54
3
n-0.015625
o16
o5
o1
v104
v107
n2
o2
o1
v104
v107
o1
v106
v107
v11
o2
n2
v136
o3
o0
o2
n0.015625
v10
o2
n-0.015625
v9
o2
n2
v138
o3
o2
o5
o1
v104
v103
n2
v10
o2
n2
v185
o3
o54
3
o2
o5
o1
n0.5
v110
n2
v10
o16
o2
o2
o1
v106
v110
o1
n0.5
v110
v13
o2
o0
o16
o5
o1
n0.5
v110
n2
o2
o1
v106
v110
o1
n0.5
v110
v14
o2
n2
v139
C1
o16
v186
V187 1 3
0 0.03125
n-0.015625
V188 0 3
o54
6
o3
o0
o2
o1
o54
3
n0.015625
o5
o1
v104
v107
n2
o5
o1
v106
v107
n2
o2
o2
n2
o1
v104
v107
o1
v106
v107
v11
o2
o54
3
n-0.015625
o16
o5
o1
v104
v107
n2
o2
o1
v104
v107
o1
v106
v107
v10
o2
n2
v136
o3
o54
3
o2
o1
o54
3
n0.015625
o5
o1
v111
v107
n2
o5
o1
v108
v107
n2
o2
o2
n2
o1
v111
v107
o1
v108
v107
v11
o2
o54
3
n-0.015625
o16
o5
o1
v111
v107
n2
o2
o1
v111
v107
o1
v108
v107
v12
o2
o0
o16
o5
o1
v108
v107
n2
o2
o1
v111
v107
o1
v108
v107
v15
o2
n2
v142
o3
o0
o2
o0
n0.015625
o5
o1
v105
v108
n2
v11
o2
o54
3
n-0.015625
o16
o5
o1
v105
v108
n2
o2
o1
v105
v108
o1
v107
v108
v12
o2
n2
v137
o3
o54
3
o2
o0
n0.015625
o5
o1
v110
v106
n2
v11
o2
o54
3
n-0.015625
o16
o5
o1
v110
v106
n2
o2
o1
v110
v106
o1
v107
v106
v10
o16
o2
o2
o1
v110
v106
o1
v107
v106
v14
o2
n2
v140
o3
o2
o5
o1
v105
v104
n2
v11
o2
n2
v187
o3
o54
3
o2
o5
o1
v110
v111
n2
v11
o16
o2
o2
o1
v107
v111
o1
v110
v111
v14
o2
o0
o16
o5
o1
v110
v111
n2
o2
o1
v107
v111
o1
v110
v111
v15
o2
n2
v141
C2
o16
v188
V189 1 4
0 1
n0
V190 1 4
0 0.03125
n-0.015625
V191 1 4
1 0.03125
n-0.015625
V192 0 4
o54
6
o3
o0
o2
o1
o54
3
n0.015625
o5
o1
v105
v108
n2
o5
o1
v107
v108
n2
o2
o2
n2
o1
v105
v108
o1
v107
v108
v12
o2
o54
3
n-0.015625
o16
o5
o1
v105
v108
n2
o2
o1
v105
v108
o1
v107
v108
v11
o2
n2
v137
o3
o0
o2
o1
o54
3
n0.015625
o5
o1
v112
v108
n2
o5
o1
v109
v108
n2
o2
o2
n2
o1
v112
v108
o1
v109
v108
v12
o2
o0
o16
o5
o1
v109
v108
n2
o2
o1
v112
v108
o1
v109
v108
v16
o2
n2
v144
o3
o2
o0
n0.015625
o5
o1
v189
v109
n2
v12
o2
n2
v191
o3
o54
3
o2
o0
n0.015625
o5
o1
v111
v107
n2
v12
o2
o54
3
n-0.015625
o16
o5
o1
v111
v107
n2
o2
o1
v111
v107
o1
v108
v107
v11
o16
o2
o2
o1
v111
v107
o1
v108
v107
v15
o2
n2
v142
o3
o2
o5
o1
v189
v105
n2
v12
o2
n2
v190
o3
o54
3
o2
o5
o1
v111
v112
n2
v12
o16
o2
o2
o1
v108
v112
o1
v111
v112
v15
o2
o0
o16
o5
o1
v111
v112
n2
o2
o1
v108
v112
o1
v111
v112
v16
o2
n2
v143
C3
o16
v192
V193 0 5
o54
3
o3
o54
3
o2
o0
n0.015625
o5
o0
n-0.5
v110
n2
v13
o2
n-0.015625
v14
o16
o2
o5
o0
n-0.5
v110
n2
v17
o2
n2
v145
o3
o54
3
o2
o0
n0.015625
o5
o1
v106
v110
n2
v13
o2
o54
3
n-0.015625
o16
o5
o1
v106
v110
n2
o2
o1
v106
v110
o1
n0.5
v110
v14
o16
o2
o2
o1
v106
v110
o1
n0.5
v110
v10
o2
n2
v139
o3
o0
o2
o5
o0
n-0.5
v106
n2
v13
o16
o2
o5
o0
n-0.5
v106
n2
v9
o2
n2
v138
C4
o16
v193
V194 0 6
o54
6
o3
o54
3
o2
o1
o54
3
n0.015625
o5
o1
v106
v110
n2
o5
o1
n0.5
v110
n2
o2
o2
n2
o1
v106
v110
o1
n0.5
v110
v14
o2
o54
3
n-0.015625
o16
o5
o1
v106
v110
n2
o2
o1
v106
v110
o1
n0.5
v110
v13
o2
o0
o16
o5
o1
n0.5
v110
n2
o2
o1
v106
v110
o1
n0.5
v110
v10
o2
n2
v139
o3
o54
3
o2
o1
o54
3
n0.015625
o5
o1
v114
v110
n2
o5
o1
v111
v110
n2
o2
o2
n2
o1
v114
v110
o1
v111
v110
v14
o2
o54
3
n-0.015625
o16
o5
o1
v114
v110
n2
o2
o1
v114
v110
o1
v111
v110
v15
o2
o0
o16
o5
o1
v111
v110
n2
o2
o1
v114
v110
o1
v111
v110
v18
o2
n2
v147
o3
o54
3
o2
o0
n0.015625
o5
o1
v107
v111
n2
v14
o2
o54
3
n-0.015625
o16
o5
o1
v107
v111
n2
o2
o1
v107
v111
o1
v110
v111
v15
o16
o2
o2
o1
v107
v111
o1
v110
v111
v11
o2
n2
v141
o3
o0
o2
n0.015625
v14
o2
n-0.015625
v13
o2
n2
v145
o3
o54
3
o2
o5
o1
v107
v106
n2
v14
o16
o2
o2
o1
v110
v106
o1
v107
v106
v11
o2
o0
o16
o5
o1
v107
v106
n2
o2
o1
v110
v106
o1
v107
v106
v10
o2
n2
v140
o3
o54
3
o2
o5
o1
n0.5
v114
n2
v14
o16
o2
o2
o1
v110
v114
o1
n0.5
v114
v17
o2
o0
o16
o5
o1
n0.5
v114
n2
o2
o1
v110
v114
o1
n0.5
v114
v18
o2
n2
v146
C5
o16
v194
V195 0 7
o54
6
o3
o54
3
o2
o1
o54
3
n0.015625
o5
o1
v107
v111
n2
o5
o1
v110
v111
n2
o2
o2
n2
o1
v107
v111
o1
v110
v111
v15
o2
o54
3
n-0.015625
o16
o5
o1
v107
v111
n2
o2
o1
v107
v111
o1
v110
v111
v14
o2
o0
o16
o5
o1
v110
v111
n2
o2
o1
v107
v111
o1
v110
v111
v11
o2
n2
v141
o3
o54
3
o2
o1
o54
3
n0.015625
o5
o1
v115
v111
n2
o5
o1
v112
v111
n2
o2
o2
n2
o1
v115
v111
o1
v112
v111
v15
o2
o54
3
n-0.015625
o16
o5
o1
v115
v111
n2
o2
o1
v115
v111
o1
v112
v111
v16
o2
o0
o16
o5
o1
v112
v111
n2
o2
o1
v115
v111
o1
v112
v111
v19
o2
n2
v149
o3
o54
3
o2
o0
n0.015625
o5
o1
v108
v112
n2
v15
o2
o54
3
n-0.015625
o16
o5
o1
v108
v112
n2
o2
o1
v108
v112
o1
v111
v112
v16
o16
o2
o2
o1
v108
v112
o1
v111
v112
v12
o2
n2
v143
o3
o54
3
o2
o0
n0.015625
o5
o1
v114
v110
n2
v15
o2
o54
3
n-0.015625
o16
o5
o1
v114
v110
n2
o2
o1
v114
v110
o1
v111
v110
v14
o16
o2
o2
o1
v114
v110
o1
v111
v110
v18
o2
n2
v147
o3
o54
3
o2
o5
o1
v108
v107
n2
v15
o16
o2
o2
o1
v111
v107
o1
v108
v107
v12
o2
o0
o16
o5
o1
v108
v107
n2
o2
o1
v111
v107
o1
v108
v107
v11
o2
n2
v142
o3
o54
3
o2
o5
o1
v114
v115
n2
v15
o16
o2
o2
o1
v111
v115
o1
v114
v115
v18
o2
o0
o16
o5
o1
v114
v115
n2
o2
o1
v111
v115
o1
v114
v115
v19
o2
n2
v148
C6
o16
v195
V196 1 8
2 0.03125
n-0.015625
V197 0 8
o54
6
o3
o54
3
o2
o1
o54
3
n0.015625
o5
o1
v108
v112
n2
o5
o1
v111
v112
n2
o2
o2
n2
o1
v108
v112
o1
v111
v112
v16
o2
o54
3
n-0.015625
o16
o5
o1
v108
v112
n2
o2
o1
v108
v112
o1
v111
v112
v15
o2
o0
o16
o5
o1
v111
v112
n2
o2
o1
v108
v112
o1
v111
v112
v12
o2
n2
v143
o3
o0
o2
o1
o54
3
n0.015625
o5
o1
v116
v112
n2
o5
o1
v113
v112
n2
o2
o2
n2
o1
v116
v112
o1
v113
v112
v16
o2
o0
o16
o5
o1
v113
v112
n2
o2
o1
v116
v112
o1
v113
v112
v20
o2
n2
v151
o3
o2
o0
n0.015625
o5
o1
v109
v113
n2
v16
o2
n2
v196
o3
o54
3
o2
o0
n0.015625
o5
o1
v115
v111
n2
v16
o2
o54
3
n-0.015625
o16
o5
o1
v115
v111
n2
o2
o1
v115
v111
o1
v112
v111
v15
o16
o2
o2
o1
v115
v111
o1
v112
v111
v19
o2
n2
v149
o3
o0
o2
o5
o1
v109
v108
n2
v16
o2
o0
o16
o5
o1
v109
v108
n2
o2
o1
v112
v108
o1
v109
v108
v12
o2
n2
v144
o3
o54
3
o2
o5
o1
v115
v116
n2
v16
o16
o2
o2
o1
v112
v116
o1
v115
v116
v19
o2
o0
o16
o5
o1
v115
v116
n2
o2
o1
v112
v116
o1
v115
v116
v20
o2
n2
v150
C7
o16
v197
V198 0 9
o54
3
o3
o54
3
o2
o0
n0.015625
o5
o0
n-0.5
v114
n2
v17
o2
n-0.015625
v18
o16
o2
o5
o0
n-0.5
v114
n2
v21
o2
n2
v152
o3
o54
3
o2
o0
n0.015625
o5
o1
v110
v114
n2
v17
o2
o54
3
n-0.015625
o16
o5
o1
v110
v114
n2
o2
o1
v110
v114
o1
n0.5
v114
v18
o16
o2
o2
o1
v110
v114
o1
n0.5
v114
v14
o2
n2
v146
o3
o0
o2
o5
o0
n-0.5
v110
n2
v17
o16
o2
o5
o0
n-0.5
v110
n2
v13
o2
n2
v145
C8
o16
v198
V199 0 10
o54
6
o3
o54
3
o2
o1
o54
3
n0.015625
o5
o1
v110
v114
n2
o5
o1
n0.5
v114
n2
o2
o2
n2
o1
v110
v114
o1
n0.5
v114
v18
o2
o54
3
n-0.015625
o16
o5
o1
v110
v114
n2
o2
o1
v110
v114
o1
n0.5
v114
v17
o2
o0
o16
o5
o1
n0.5
v114
n2
o2
o1
v110
v114
o1
n0.5
v114
v14
o2
n2
v146
o3
o54
3
o2
o1
o54
3
n0.015625
o5
o1
v118
v114
n2
o5
o1
v115
v114
n2
o2
o2
n2
o1
v118
v114
o1
v115
v114
v18
o2
o54
3
n-0.015625
o16
o5
o1
v118
v114
n2
o2
o1
v118
v114
o1
v115
v114
v19
o2
o0
o16
o5
o1
v115
v114
n2
o2
o1
v118
v114
o1
v115
v114
v22
o2
n2
v154
o3
o54
3
o2
o0
n0.015625
o5
o1
v111
v115
n2
v18
o2
o54
3
n-0.015625
o16
o5
o1
v111
v115
n2
o2
o1
v111
v115
o1
v114
v115
v19
o16
o2
o2
o1
v111
v115
o1
v114
v115
v15
o2
n2
v148
o3
o0
o2
n0.015625
v18
o2
n-0.015625
v17
o2
n2
v152
o3
o54
3
o2
o5
o1
v111
v110
n2
v18
o16
o2
o2
o1
v114
v110
o1
v111
v110
v15
o2
o0
o16
o5
o1
v111
v110
n2
o2
o1
v114
v110
o1
v111
v110
v14
o2
n2
v147
o3
o54
3
o2
o5
o1
n0.5
v118
n2
v18
o16
o2
o2
o1
v114
v118
o1
n0.5
v118
v21
o2
o0
o16
o5
o1
n0.5
v118
n2
o2
o1
v114
v118
o1
n0.5
v118
v22
o2
n2
v153
C9
o16
v199
V200 0 11
o54
6
o3
o54
3
o2
o1
o54
3
n0.015625
o5
o1
v111
v115
n2
o5
o1
v114
v115
n2
o2
o2
n2
o1
v111
v115
o1
v114
v115
v19
o2
o54
3
n-0.015625
o16
o5
o1
v111
v115
n2
o2
o1
v111
v115
o1
v114
v115
v18
o2
o0
o16
o5
o1
v114
v115
n2
o2
o1
v111
v115
o1
v114
v115
v15
o2
n2
v148
o3
o54
3
o2
o1
o54
3
n0.015625
o5
o1
v119
v115
n2
o5
o1
v116
v115
n2
o2
o2
n2
o1
v119
v115
o1
v116
v115
v19
o2
o54
3
n-0.015625
o16
o5
o1
v119
v115
n2
o2
o1
v119
v115
o1
v116
v115
v20
o2
o0
o16
o5
o1
v116
v115
n2
o2
o1
v119
v115
o1
v116
v115
v23
o2
n2
v156
o3
o54
3
o2
o0
n0.015625
o5
o1
v112
v116
n2
v19
o2
o54
3
n-0.015625
o16
o5
o1
v112
v116
n2
o2
o1
v112
v116
o1
v115
v116
v20
o16
o2
o2
o1
v112
v116
o1
v115
v116
v16
o2
n2
v150
o3
o54
3
o2
o0
n0.015625
o5
o1
v118
v114
n2
v19
o2
o54
3
n-0.015625
o16
o5
o1
v118
v114
n2
o2
o1
v118
v114
o1
v115
v114
v18
o16
o2
o2
o1
v118
v114
o1
v115
v114
v22
o2
n2
v154
o3
o54
3
o2
o5
o1
v112
v111
n2
v19
o16
o2
o2
o1
v115
v111
o1
v112
v111
v16
o2
o0
o16
o5
o1
v112
v111
n2
o2
o1
v115
v111
o1
v112
v111
v15
o2
n2
v149
o3
o54
3
o2
o5
o1
v118
v119
n2
v19
o16
o2
o2
o1
v115
v119
o1
v118
v119
v22
o2
o0
o16
o5
o1
v118
v119
n2
o2
o1
v115
v119
o1
v118
v119
v23
o2
n2
v155
C10
o16
v200
V201 1 12
3 0.03125
n-0.015625
V202 0 12
o54
6
o3
o54
3
o2
o1
o54
3
n0.015625
o5
o1
v112
v116
n2
o5
o1
v115
v116
n2
o2
o2
n2
o1
v112
v116
o1
v115
v116
v20
o2
o54
3
n-0.015625
o16
o5
o1
v112
v116
n2
o2
o1
v112
v116
o1
v115
v116
v19
o2
o0
o16
o5
o1
v115
v116
n2
o2
o1
v112
v116
o1
v115
v116
v16
o2
n2
v150
o3
o0
o2
o1
o54
3
n0.015625
o5
o1
v120
v116
n2
o5
o1
v117
v116
n2
o2
o2
n2
o1
v120
v116
o1
v117
v116
v20
o2
o0
o16
o5
o1
v117
v116
n2
o2
o1
v120
v116
o1
v117
v116
v24
o2
n2
v158
o3
o2
o0
n0.015625
o5
o1
v113
v117
n2
v20
o2
n2
v201
o3
o54
3
o2
o0
n0.015625
o5
o1
v119
v115
n2
v20
o2
o54
3
n-0.015625
o16
o5
o1
v119
v115
n2
o2
o1
v119
v115
o1
v116
v115
v19
o16
o2
o2
o1
v119
v115
o1
v116
v115
v23
o2
n2
v156
o3
o0
o2
o5
o1
v113
v112
n2
v20
o2
o0
o16
o5
o1
v113
v112
n2
o2
o1
v116
v112
o1
v113
v112
v16
o2
n2
v151
o3
o54
3
o2
o5
o1
v119
v120
n2
v20
o16
o2
o2
o1
v116
v120
o1
v119
v120
v23
o2
o0
o16
o5
o1
v119
v120
n2
o2
o1
v116
v120
o1
v119
v120
v24
o2
n2
v157
C11
o16
v202
V203 0 13
o54
3
o3
o54
3
o2
o0
n0.015625
o5
o0
n-0.5
v118
n2
v21
o2
n-0.015625
v22
o16
o2
o5
o0
n-0.5
v118
n2
v25
o2
n2
v159
o3
o54
3
o2
o0
n0.015625
o5
o1
v114
v118
n2
v21
o2
o54
3
n-0.015625
o16
o5
o1
v114
v118
n2
o2
o1
v114
v118
o1
n0.5
v118
v22
o16
o2
o2
o1
v114
v118
o1
n0.5
v118
v18
o2
n2
v153
o3
o0
o2
o5
o0
n-0.5
v114
n2
v21
o16
o2
o5
o0
n-0.5
v114
n2
v17
o2
n2
v152
C12
o16
v203
V204 0 14
o54
6
o3
o54
3
o2
o1
o54
3
n0.015625
o5
o1
v114
v118
n2
o5
o1
n0.5
v118
n2
o2
o2
n2
o1
v114
v118
o1
n0.5
v118
v22
o2
o54
3
n-0.015625
o16
o5
o1
v114
v118
n2
o2
o1
v114
v118
o1
n0.5
v118
v21
o2
o0
o16
o5
o1
n0.5
v118
n2
o2
o1
v114
v118
o1
n0.5
v118
v18
o2
n2
v153
o3
o54
3
o2
o1
o54
3
n0.015625
o5
o1
v122
v118
n2
o5
o1
v119
v118
n2
o2
o2
n2
o1
v122
v118
o1
v119
v118
v22
o2
o54
3
n-0.015625
o16
o5
o1
v122
v118
n2
o2
o1
v122
v118
o1
v119
v118
v23
o2
o0
o16
o5
o1
v119
v118
n2
o2
o1
v122
v118
o1
v119
v118
v26
o2
n2
v161
o3
o54
3
o2
o0
n0.015625
o5
o1
v115
v119
n2
v22
o2
o54
3
n-0.015625
o16
o5
o1
v115
v119
n2
o2
o1
v115
v119
o1
v118
v119
v23
o16
o2
o2
o1
v115
v119
o1
v118
v119
v19
o2
n2
v155
o3
o0
o2
n0.015625
v22
o2
n-0.015625
v21
o2
n2
v159
o3
o54
3
o2
o5
o1
v115
v114
n2
v22
o16
o2
o2
o1
v118
v114
o1
v115
v114
v19
o2
o0
o16
o5
o1
v115
v114
n2
o2
o1
v118
v114
o1
v115
v114
v18
o2
n2
v154
o3
o54
3
o2
o5
o1
n0.5
v122
n2
v22
o16
o2
o2
o1
v118
v122
o1
n0.5
v122
v25
o2
o0
o16
o5
o1
n0.5
v122
n2
o2
o1
v118
v122
o1
n0.5
v122
v26
o2
n2
v160
C13
o16
v204
V205 0 15
o54
6
o3
o54
3
o2
o1
o54
3
n0.015625
o5
o1
v115
v119
n2
o5
o1
v118
v119
n2
o2
o2
n2
o1
v115
v119
o1
v118
v119
v23
o2
o54
3
n-0.015625
o16
o5
o1
v115
v119
n2
o2
o1
v115
v119
o1
v118
v119
v22
o2
o0
o16
o5
o1
v118
v119
n2
o2
o1
v115
v119
o1
v118
v119
v19
o2
n2
v155
o3
o54
3
o2
o1
o54
3
n0.015625
o5
o1
v123
v119
n2
o5
o1
v120
v119
n2
o2
o2
n2
o1
v123
v119
o1
v120
v119
v23
o2
o54
3
n-0.015625
o16
o5
o1
v123
v119
n2
o2
o1
v123
v119
o1
v120
v119
v24
o2
o0
o16
o5
o1
v120
v119
n2
o2
o1
v123
v119
o1
v120
v119
v27
o2
n2
v163
o3
o54
3
o2
o0
n0.015625
o5
o1
v116
v120
n2
v23
o2
o54
3
n-0.015625
o16
o5
o1
v116
v120
n2
o2
o1
v116
v120
o1
v119
v120
v24
o16
o2
o2
o1
v116
v120
o1
v119
v120
v20
o2
n2
v157
o3
o54
3
o2
o0
n0.015625
o5
o1
v122
v118
n2
v23
o2
o54
3
n-0.015625
o16
o5
o1
v122
v118
n2
o2
o1
v122
v118
o1
v119
v118
v22
o16
o2
o2
o1
v122
v118
o1
v119
v118
v26
o2
n2
v161
o3
o54
3
o2
o5
o1
v116
v115
n2
v23
o16
o2
o2
o1
v119
v115
o1
v116
v115
v20
o2
o0
o16
o5
o1
v116
v115
n2
o2
o1
v119
v115
o1
v116
v115
v19
o2
n2
v156
o3
o54
3
o2
o5
o1
v122
v123
n2
v23
o16
o2
o2
o1
v119
v123
o1
v122
v123
v26
o2
o0
o16
o5
o1
v122
v123
n2
o2
o1
v119
v123
o1
v122
v123
v27
o2
n2
v162
C14
o16
v205
V206 1 16
4 0.03125
n-0.015625
V207 0 16
o54
6
o3
o54
3
o2
o1
o54
3
n0.015625
o5
o1
v116
v120
n2
o5
o1
v119
v120
n2
o2
o2
n2
o1
v116
v120
o1
v119
v120
v24
o2
o54
3
n-0.015625
o16
o5
o1
v116
v120
n2
o2
o1
v116
v120
o1
v119
v120
v23
o2
o0
o16
o5
o1
v119
v120
n2
o2
o1
v116
v120
o1
v119
v120
v20
o2
n2
v157
o3
o0
o2
o1
o54
3
n0.015625
o5
o1
v124
v120
n2
o5
o1
v121
v120
n2
o2
o2
n2
o1
v124
v120
o1
v121
v120
v24
o2
o0
o16
o5
o1
v121
v120
n2
o2
o1
v124
v120
o1
v121
v120
v28
o2
n2
v165
o3
o2
o0
n0.015625
o5
o1
v117
v121
n2
v24
o2
n2
v206
o3
o54
3
o2
o0
n0.015625
o5
o1
v123
v119
n2
v24
o2
o54
3
n-0.015625
o16
o5
o1
v123
v119
n2
o2
o1
v123
v119
o1
v120
v119
v23
o16
o2
o2
o1
v123
v119
o1
v120
v119
v27
o2
n2
v163
o3
o0
o2
o5
o1
v117
v116
n2
v24
o2
o0
o16
o5
o1
v117
v116
n2
o2
o1
v120
v116
o1
v117
v116
v20
o2
n2
v158
o3
o54
3
o2
o5
o1
v123
v124
n2
v24
o16
o2
o2
o1
v120
v124
o1
v123
v124
v27
o2
o0
o16
o5
o1
v123
v124
n2
o2
o1
v120
v124
o1
v123
v124
v28
o2
n2
v164
C15
o16
v207
V208 0 17
o54
3
o3
o54
3
o2
o0
n0.015625
o5
o0
n-0.5
v122
n2
v25
o2
n-0.015625
v26
o16
o2
o5
o0
n-0.5
v122
n2
v29
o2
n2
v166
o3
o54
3
o2
o0
n0.015625
o5
o1
v118
v122
n2
v25
o2
o54
3
n-0.015625
o16
o5
o1
v118
v122
n2
o2
o1
v118
v122
o1
n0.5
v122
v26
o16
o2
o2
o1
v118
v122
o1
n0.5
v122
v22
o2
n2
v160
o3
o0
o2
o5
o0
n-0.5
v118
n2
v25
o16
o2
o5
o0
n-0.5
v118
n2
v21
o2
n2
v159
C16
o16
v208
V209 0 18
o54
6
o3
o54
3
o2
o1
o54
3
n0.015625
o5
o1
v118
v122
n2
o5
o1
n0.5
v122
n2
o2
o2
n2
o1
v118
v122
o1
n0.5
v122
v26
o2
o54
3
n-0.015625
o16
o5
o1
v118
v122
n2
o2
o1
v118
v122
o1
n0.5
v122
v25
o2
o0
o16
o5
o1
n0.5
v122
n2
o2
o1
v118
v122
o1
n0.5
v122
v22
o2
n2
v160
o3
o54
3
o2
o1
o54
3
n0.015625
o5
o1
v126
v122
n2
o5
o1
v123
v122
n2
o2
o2
n2
o1
v126
v122
o1
v123
v122
v26
o2
o54
3
n-0.015625
o16
o5
o1
v126
v122
n2
o2
o1
v126
v122
o1
v123
v122
v27
o2
o0
o16
o5
o1
v123
v122
n2
o2
o1
v126
v122
o1
v123
v122
v30
o2
n2
v168
o3
o54
3
o2
o0
n0.015625
o5
o1
v119
v123
n2
v26
o2
o54
3
n-0.015625
o16
o5
o1
v119
v123
n2
o2
o1
v119
v123
o1
v122
v123
v27
o16
o2
o2
o1
v119
v123
o1
v122
v123
v23
o2
n2
v162
o3
o0
o2
n0.015625
v26
o2
n-0.015625
v25
o2
n2
v166
o3
o54
3
o2
o5
o1
v119
v118
n2
v26
o16
o2
o2
o1
v122
v118
o1
v119
v118
v23
o2
o0
o16
o5
o1
v119
v118
n2
o2
o1
v122
v118
o1
v119
v118
v22
o2
n2
v161
o3
o54
3
o2
o5
o1
n0.5
v126
n2
v26
o16
o2
o2
o1
v122
v126
o1
n0.5
v126
v29
o2
o0
o16
o5
o1
n0.5
v126
n2
o2
o1
v122
v126
o1
n0.5
v126
v30
o2
n2
v167
C17
o16
v209
V210 0 19
o54
6
o3
o54
3
o2
o1
o54
3
n0.015625
o5
o1
v119
v123
n2
o5
o1
v122
v123
n2
o2
o2
n2
o1
v119
v123
o1
v122
v123
v27
o2
o54
3
n-0.015625
o16
o5
o1
v119
v123
n2
o2
o1
v119
v123
o1
v122
v123
v26
o2
o0
o16
o5
o1
v122
v123
n2
o2
o1
v119
v123
o1
v122
v123
v23
o2
n2
v162
o3
o54
3
o2
o1
o54
3
n0.015625
o5
o1
v127
v123
n2
o5
o1
v124
v123
n2
o2
o2
n2
o1
v127
v123
o1
v124
v123
v27
o2
o54
3
n-0.015625
o16
o5
o1
v127
v123
n2
o2
o1
v127
v123
o1
v124
v123
v28
o2
o0
o16
o5
o1
v124
v123
n2
o2
o1
v127
v123
o1
v124
v123
v31
o2
n2
v170
o3
o54
3
o2
o0
n0.015625
o5
o1
v120
v124
n2
v27
o2
o54
3
n-0.015625
o16
o5
o1
v120
v124
n2
o2
o1
v120
v124
o1
v123
v124
v28
o16
o2
o2
o1
v120
v124
o1
v123
v124
v24
o2
n2
v164
o3
o54
3
o2
o0
n0.015625
o5
o1
v126
v122
n2
v27
o2
o54
3
n-0.015625
o16
o5
o1
v126
v122
n2
o2
o1
v126
v122
o1
v123
v122
v26
o16
o2
o2
o1
v126
v122
o1
v123
v122
v30
o2
n2
v168
o3
o54
3
o2
o5
o1
v120
v119
n2
v27
o16
o2
o2
o1
v123
v119
o1
v120
v119
v24
o2
o0
o16
o5
o1
v120
v119
n2
o2
o1
v123
v119
o1
v120
v119
v23
o2
n2
v163
o3
o54
3
o2
o5
o1
v126
v127
n2
v27
o16
o2
o2
o1
v123
v127
o1
v126
v127
v30
o2
o0
o16
o5
o1
v126
v127
n2
o2
o1
v123
v127
o1
v126
v127
v31
o2
n2
v169
C18
o16
v210
V211 1 20
5 0.03125
n-0.015625
V212 0 20
o54
6
o3
o54
3
o2
o1
o54
3
n0.015625
o5
o1
v120
v124
n2
o5
o1
v123
v124
n2
o2
o2
n2
o1
v120
v124
o1
v123
v124
v28
o2
o54
3
n-0.015625
o16
o5
o1
v120
v124
n2
o2
o1
v120
v124
o1
v123
v124
v27
o2
o0
o16
o5
o1
v123
v124
n2
o2
o1
v120
v124
o1
v123
v124
v24
o2
n2
v164
o3
o0
o2
o1
o54
3
n0.015625
o5
o1
v128
v124
n2
o5
o1
v125
v124
n2
o2
o2
n2
o1
v128
v124
o1
v125
v124
v28
o2
o0
o16
o5
o1
v125
v124
n2
o2
o1
v128
v124
o1
v125
v124
v32
o2
n2
v172
o3
o2
o0
n0.015625
o5
o1
v121
v125
n2
v28
o2
n2
v211
o3
o54
3
o2
o0
n0.015625
o5
o1
v127
v123
n2
v28
o2
o54
3
n-0.015625
o16
o5
o1
v127
v123
n2
o2
o1
v127
v123
o1
v124
v123
v27
o16
o2
o2
o1
v127
v123
o1
v124
v123
v31
o2
n2
v170
o3
o0
o2
o5
o1
v121
v120
n2
v28
o2
o0
o16
o5
o1
v121
v120
n2
o2
o1
v124
v120
o1
v121
v120
v24
o2
n2
v165
o3
o54
3
o2
o5
o1
v127
v128
n2
v28
o16
o2
o2
o1
v124
v128
o1
v127
v128
v31
o2
o0
o16
o5
o1
v127
v128
n2
o2
o1
v124
v128
o1
v127
v128
v32
o2
n2
v171
C19
o16
v212
V213 0 21
o54
3
o3
o54
3
o2
o0
n0.015625
o5
o0
n-0.5
v126
n2
v29
o2
n-0.015625
v30
o16
o2
o5
o0
n-0.5
v126
n2
v33
o2
n2
v173
o3
o54
3
o2
o0
n0.015625
o5
o1
v122
v126
n2
v29
o2
o54
3
n-0.015625
o16
o5
o1
v122
v126
n2
o2
o1
v122
v126
o1
n0.5
v126
v30
o16
o2
o2
o1
v122
v126
o1
n0.5
v126
v26
o2
n2
v167
o3
o0
o2
o5
o0
n-0.5
v122
n2
v29
o16
o2
o5
o0
n-0.5
v122
n2
v25
o2
n2
v166
C20
o16
v213
V214 0 22
o54
6
o3
o54
3
o2
o1
o54
3
n0.015625
o5
o1
v122
v126
n2
o5
o1
n0.5
v126
n2
o2
o2
n2
o1
v122
v126
o1
n0.5
v126
v30
o2
o54
3
n-0.015625
o16
o5
o1
v122
v126
n2
o2
o1
v122
v126
o1
n0.5
v126
v29
o2
o0
o16
o5
o1
n0.5
v126
n2
o2
o1
v122
v126
o1
n0.5
v126
v26
o2
n2
v167
o3
o54
3
o2
o1
o54
3
n0.015625
o5
o1
v130
v126
n2
o5
o1
v127
v126
n2
o2
o2
n2
o1
v130
v126
o1
v127
v126
v30
o2
o54
3
n-0.015625
o16
o5
o1
v130
v126
n2
o2
o1
v130
v126
o1
v127
v126
v31
o2
o0
o16
o5
o1
v127
v126
n2
o2
o1
v130
v126
o1
v127
v126
v34
o2
n2
v175
o3
o54
3
o2
o0
n0.015625
o5
o1
v123
v127
n2
v30
o2
o54
3
n-0.015625
o16
o5
o1
v123
v127
n2
o2
o1
v123
v127
o1
v126
v127
v31
o16
o2
o2
o1
v123
v127
o1
v126
v127
v27
o2
n2
v169
o3
o0
o2
n0.015625
v30
o2
n-0.015625
v29
o2
n2
v173
o3
o54
3
o2
o5
o1
v123
v122
n2
v30
o16
o2
o2
o1
v126
v122
o1
v123
v122
v27
o2
o0
o16
o5
o1
v123
v122
n2
o2
o1
v126
v122
o1
v123
v122
v26
o2
n2
v168
o3
o54
3
o2
o5
o1
n0.5
v130
n2
v30
o16
o2
o2
o1
v126
v130
o1
n0.5
v130
v33
o2
o0
o16
o5
o1
n0.5
v130
n2
o2
o1
v126
v130
o1
n0.5
v130
v34
o2
n2
v174
C21
o16
v214
V215 0 23
o54
6
o3
o54
3
o2
o1
o54
3
n0.015625
o5
o1
v123
v127
n2
o5
o1
v126
v127
n2
o2
o2
n2
o1
v123
v127
o1
v126
v127
v31
o2
o54
3
n-0.015625
o16
o5
o1
v123
v127
n2
o2
o1
v123
v127
o1
v126
v127
v30
o2
o0
o16
o5
o1
v126
v127
n2
o2
o1
v123
v127
o1
v126
v127
v27
o2
n2
v169
o3
o54
3
o2
o1
o54
3
n0.015625
o5
o1
v131
v127
n2
o5
o1
v128
v127
n2
o2
o2
n2
o1
v131
v127
o1
v128
v127
v31
o2
o54
3
n-0.015625
o16
o5
o1
v131
v127
n2
o2
o1
v131
v127
o1
v128
v127
v32
o2
o0
o16
o5
o1
v128
v127
n2
o2
o1
v131
v127
o1
v128
v127
v35
o2
n2
v177
o3
o54
3
o2
o0
n0.015625
o5
o1
v124
v128
n2
v31
o2
o54
3
n-0.015625
o16
o5
o1
v124
v128
n2
o2
o1
v124
v128
o1
v127
v128
v32
o16
o2
o2
o1
v124
v128
o1
v127
v128
v28
o2
n2
v171
o3
o54
3
o2
o0
n0.015625
o5
o1
v130
v126
n2
v31
o2
o54
3
n-0.015625
o16
o5
o1
v130
v126
n2
o2
o1
v130
v126
o1
v127
v126
v30
o16
o2
o2
o1
v130
v126
o1
v127
v126
v34
o2
n2
v175
o3
o54
3
o2
o5
o1
v124
v123
n2
v31
o16
o2
o2
o1
v127
v123
o1
v124
v123
v28
o2
o0
o16
o5
o1
v124
v123
n2
o2
o1
v127
v123
o1
v124
v123
v27
o2
n2
v170
o3
o54
3
o2
o5
o1
v130
v131
n2
v31
o16
o2
o2
o1
v127
v131
o1
v130
v131
v34
o2
o0
o16
o5
o1
v130
v131
n2
o2
o1
v127
v131
o1
v130
v131
v35
o2
n2
v176
C22
o16
v215
V216 1 24
6 0.03125
n-0.015625
V217 0 24
o54
6
o3
o54
3
o2
o1
o54
3
n0.015625
o5
o1
v124
v128
n2
o5
o1
v127
v128
n2
o2
o2
n2
o1
v124
v128
o1
v127
v128
v32
o2
o54
3
n-0.015625
o16
o5
o1
v124
v128
n2
o2
o1
v124
v128
o1
v127
v128
v31
o2
o0
o16
o5
o1
v127
v128
n2
o2
o1
v124
v128
o1
v127
v128
v28
o2
n2
v171
o3
o0
o2
o1
o54
3
n0.015625
o5
o1
v132
v128
n2
o5
o1
v129
v128
n2
o2
o2
n2
o1
v132
v128
o1
v129
v128
v32
o2
o0
o16
o5
o1
v129
v128
n2
o2
o1
v132
v128
o1
v129
v128
v36
o2
n2
v179
o3
o2
o0
n0.015625
o5
o1
v125
v129
n2
v32
o2
n2
v216
o3
o54
3
o2
o0
n0.015625
o5
o1
v131
v127
n2
v32
o2
o54
3
n-0.015625
o16
o5
o1
v131
v127
n2
o2
o1
v131
v127
o1
v128
v127
v31
o16
o2
o2
o1
v131
v127
o1
v128
v127
v35
o2
n2
v177
o3
o0
o2
o5
o1
v125
v124
n2
v32
o2
o0
o16
o5
o1
v125
v124
n2
o2
o1
v128
v124
o1
v125
v124
v28
o2
n2
v172
o3
o54
3
o2
o5
o1
v131
v132
n2
v32
o16
o2
o2
o1
v128
v132
o1
v131
v132
v35
o2
o0
o16
o5
o1
v131
v132
n2
o2
o1
v128
v132
o1
v131
v132
v36
o2
n2
v178
C23
o16
v217
V218 0 25
o54
3
o3
o0
o2
o0
n0.015625
o5
o0
n-0.5
v130
n2
v33
o2
n-0.015625
v34
o2
n2
v180
o3
o54
3
o2
o0
n0.015625
o5
o1
v126
v130
n2
v33
o2
o54
3
n-0.015625
o16
o5
o1
v126
v130
n2
o2
o1
v126
v130
o1
n0.5
v130
v34
o16
o2
o2
o1
v126
v130
o1
n0.5
v130
v30
o2
n2
v174
o3
o0
o2
o5
o0
n-0.5
v126
n2
v33
o16
o2
o5
o0
n-0.5
v126
n2
v29
o2
n2
v173
C24
o16
v218
V219 1 26
8 0.03125
n-0.015625
V220 0 26
o54
6
o3
o54
3
o2
o1
o54
3
n0.015625
o5
o1
v126
v130
n2
o5
o1
n0.5
v130
n2
o2
o2
n2
o1
v126
v130
o1
n0.5
v130
v34
o2
o54
3
n-0.015625
o16
o5
o1
v126
v130
n2
o2
o1
v126
v130
o1
n0.5
v130
v33
o2
o0
o16
o5
o1
n0.5
v130
n2
o2
o1
v126
v130
o1
n0.5
v130
v30
o2
n2
v174
o3
o0
o2
o1
o54
3
n0.015625
o5
o1
v133
v130
n2
o5
o1
v131
v130
n2
o2
o2
n2
o1
v133
v130
o1
v131
v130
v34
o2
o54
3
n-0.015625
o16
o5
o1
v133
v130
n2
o2
o1
v133
v130
o1
v131
v130
v35
o2
n2
v181
o3
o54
3
o2
o0
n0.015625
o5
o1
v127
v131
n2
v34
o2
o54
3
n-0.015625
o16
o5
o1
v127
v131
n2
o2
o1
v127
v131
o1
v130
v131
v35
o16
o2
o2
o1
v127
v131
o1
v130
v131
v31
o2
n2
v176
o3
o0
o2
n0.015625
v34
o2
n-0.015625
v33
o2
n2
v180
o3
o54
3
o2
o5
o1
v127
v126
n2
v34
o16
o2
o2
o1
v130
v126
o1
v127
v126
v31
o2
o0
o16
o5
o1
v127
v126
n2
o2
o1
v130
v126
o1
v127
v126
v30
o2
n2
v175
o3
o2
o5
o1
n0.5
v133
n2
v34
o2
n2
v219
C25
o16
v220
V221 1 27
8 0.03125
n-0.015625
V222 0 27
o54
6
o3
o54
3
o2
o1
o54
3
n0.015625
o5
o1
v127
v131
n2
o5
o1
v130
v131
n2
o2
o2
n2
o1
v127
v131
o1
v130
v131
v35
o2
o54
3
n-0.015625
o16
o5
o1
v127
v131
n2
o2
o1
v127
v131
o1
v130
v131
v34
o2
o0
o16
o5
o1
v130
v131
n2
o2
o1
v127
v131
o1
v130
v131
v31
o2
n2
v176
o3
o0
o2
o1
o54
3
n0.015625
o5
o1
v134
v131
n2
o5
o1
v132
v131
n2
o2
o2
n2
o1
v134
v131
o1
v132
v131
v35
o2
o54
3
n-0.015625
o16
o5
o1
v134
v131
n2
o2
o1
v134
v131
o1
v132
v131
v36
o2
n2
v182
o3
o54
3
o2
o0
n0.015625
o5
o1
v128
v132
n2
v35
o2
o54
3
n-0.015625
o16
o5
o1
v128
v132
n2
o2
o1
v128
v132
o1
v131
v132
v36
o16
o2
o2
o1
v128
v132
o1
v131
v132
v32
o2
n2
v178
o3
o0
o2
o0
n0.015625
o5
o1
v133
v130
n2
v35
o2
o54
3
n-0.015625
o16
o5
o1
v133
v130
n2
o2
o1
v133
v130
o1
v131
v130
v34
o2
n2
v181
o3
o54
3
o2
o5
o1
v128
v127
n2
v35
o16
o2
o2
o1
v131
v127
o1
v128
v127
v32
o2
o0
o16
o5
o1
v128
v127
n2
o2
o1
v131
v127
o1
v128
v127
v31
o2
n2
v177
o3
o2
o5
o1
v133
v134
n2
v35
o2
n2
v221
C26
o16
v222
V223 1 28
7 1
n0
V224 1 28
8 0.75
n0.125
V225 1 28
7 0.03125
n-0.015625
V226 1 28
8 0.03125
n-0.015625
V227 1 28
7 0.03125
n-0.015625
V228 0 28
o54
6
o3
o54
3
o2
o1
o54
3
n0.015625
o5
o1
v128
v132
n2
o5
o1
v131
v132
n2
o2
o2
n2
o1
v128
v132
o1
v131
v132
v36
o2
o54
3
n-0.015625
o16
o5
o1
v128
v132
n2
o2
o1
v128
v132
o1
v131
v132
v35
o2
o0
o16
o5
o1
v131
v132
n2
o2
o1
v128
v132
o1
v131
v132
v32
o2
n2
v178
o3
o2
o1
o54
3
n0.015625
o5
o1
v224
v132
n2
o5
o1
v223
v132
n2
o2
o2
n2
o1
v224
v132
o1
v223
v132
v36
o2
n2
v227
o3
o2
o0
n0.015625
o5
o1
v129
v223
n2
v36
o2
n2
v225
o3
o0
o2
o0
n0.015625
o5
o1
v134
v131
n2
v36
o2
o54
3
n-0.015625
o16
o5
o1
v134
v131
n2
o2
o1
v134
v131
o1
v132
v131
v35
o2
n2
v182
o3
o0
o2
o5
o1
v129
v128
n2
v36
o2
o0
o16
o5
o1
v129
v128
n2
o2
o1
v132
v128
o1
v129
v128
v32
o2
n2
v179
o3
o2
o5
o1
v134
v224
n2
v36
o2
n2
v226
C27
o16
v228
V229 0 29
o0
o2
n-0.05
o5
v106
n2
n-0.00078125
C28
o16
v229
V230 0 30
o0
o2
n-0.05
o5
v107
n2
n-0.00078125
C29
o16
v230
V231 0 31
o0
o2
n-0.05
o5
v108
n2
n-0.00078125
C30
o16
v231
V232 0 32
o2
n-0.05
o5
v110
n2
C31
o16
v232
V233 0 33
o2
n-0.05
o5
v111
n2
C32
o16
v233
V234 0 34
o2
n-0.05
o5
v112
n2
C33
o16
v234
V235 0 35
o0
o2
n-0.05
o5
v114
n2
n-0.00078125
C34
o16
v235
V236 0 36
o0
o2
n-0.05
o5
v115
n2
n-0.00078125
C35
o16
v236
V237 0 37
o0
o2
n-0.05
o5
v116
n2
n-0.00078125
C36
o16
v237
V238 0 38
o0
o2
n-0.05
o5
v118
n2
n-0.003125
C37
o16
v238
V239 0 39
o0
o2
n-0.05
o5
v119
n2
n-0.003125
C38
o16
v239
V240 0 40
o0
o2
n-0.05
o5
v120
n2
n-0.003125
C39
o16
v240
V241 0 41
o0
o2
n-0.05
o5
v122
n2
n-0.00703125
C40
o16
v241
V242 0 42
o0
o2
n-0.05
o5
v123
n2
n-0.00703125
C41
o16
v242
V243 0 43
o0
o2
n-0.05
o5
v124
n2
n-0.00703125
C42
o16
v243
V244 0 44
o0
o2
n-0.05
o5
v126
n2
n-0.0125
C43
o16
v244
V245 0 45
o0
o2
n-0.05
o5
v127
n2
n-0.0125
C44
o16
v245
V246 0 46
o0
o2
n-0.05
o5
v128
n2
n-0.0125
C45
o16
v246
V247 0 47
o0
o2
n-0.05
o5
v130
n2
n-0.01953125
C46
o16
v247
V248 0 48
o0
o2
n-0.05
o5
v131
n2
n-0.01953125
C47
o16
v248
V249 0 49
o0
o2
n-0.05
o5
v132
n2
n-0.01953125
C48
o16
v249
C49
n0
C50
n0
C51
n0
C52
n0
C53
n0
C54
n0
C55
n0
C56
n0
C57
n0
C58
n0
C59
n0
C60
n0
C61
n0
C62
n0
C63
n0
C64
n0
C65
n0
C66
n0
C67
n0
C68
n0
C69
n0
C70
n0
C71
n0
C72
n0
C73
n0
C74
n0
C75
n0
C76
n0
C77
n0
C78
n0.0015625
C79
n0.00390625
C80
n0.0078125
C81
n0.013281250000000001
C82
n0.00078125
C83
n0.003125
C84
n0.00703125
C85
n0.0125
C86
n0.0015625
C87
n0.00390625
C88
n0.0078125
C89
n0.013281250000000001
C90
n0.00390625
C91
n0.00625
C92
n0.01015625
C93
n0.015625
C94
n0.0078125
C95
n0.01015625
C96
n0.0140625
C97
n0.01953125
C98
n0.015625
C99
n0.01953125
C100
n0.025
C101
n0.03203125
O0 0
n45.8984375
x9
0 1
1 1
2 1
3 1
4 1
5 1
6 1
7 1
8 1
r
4 8.673617379884035e-19
4 -0.015624999999999998
4 -0.015624999999999998
4 -0.015624999999999998
4 8.673617379884035e-19
4 -0.015624999999999998
4 -0.015624999999999998
4 -0.015624999999999998
4 8.673617379884035e-19
4 -0.015624999999999998
4 -0.015624999999999998
4 -0.015624999999999998
4 8.673617379884035e-19
4 -0.015624999999999998
4 -0.015624999999999998
4 -0.015624999999999998
4 8.673617379884035e-19
4 -0.015624999999999998
4 -0.015624999999999998
4 -0.015624999999999998
4 8.673617379884035e-19
4 -0.015624999999999998
4 -0.015624999999999998
4 -0.015624999999999998
4 8.673617379884035e-19
4 -0.015624999999999998
4 -0.015624999999999998
4 -0.015624999999999998
5 1 63
5 1 64
5 1 65
5 1 70
5 1 71
5 1 72
5 1 77
5 1 78
5 1 79
5 1 84
5 1 85
5 1 86
5 1 91
5 1 92
5 1 93
5 1 97
5 1 98
5 1 99
5 1 101
5 1 102
5 1 103
4 0.015624999999999998
4 0.015624999999999998
4 0.015624999999999998
4 0.015624999999999998
0 -0.375 0.375
0 -0.375 0.375
0 -0.375 0.375
0 -0.375 0.375
0 -0.375 0.375
0 -0.375 0.375
0 -0.375 0.375
0 -0.375 0.375
4 0.015624999999999998
4 0.015624999999999998
4 0.015624999999999998
4 0.015624999999999998
4 0.015624999999999998
4 0.015624999999999998
4 0.015624999999999998
4 0.015624999999999998
4 0.015624999999999998
4 0.015624999999999998
4 0.015624999999999998
4 0.015624999999999998
4 0.015624999999999998
4 0.015624999999999998
4 0.015624999999999998
4 0.015624999999999998
4 0.015624999999999998
5 1 59
5 1 60
5 1 61
5 1 62
5 1 66
5 1 67
5 1 68
5 1 69
5 1 73
5 1 74
5 1 75
5 1 76
5 1 80
5 1 81
5 1 82
5 1 83
5 1 87
5 1 88
5 1 89
5 1 90
5 1 94
5 1 95
5 1 96
5 1 100
b
0 0.6 1
0 0.6 1
0 0.6 1
0 0.6 1
0 0.6 1
0 0.6 1
0 0.6 1
0 0.6 1
0 0.6 1
2 -0.013281250000000001
3
3
3
2 -0.0125
3
3
3
2 -0.013281250000000001
3
3
3
2 -0.015625
3
3
3
2 -0.01953125
3
3
3
2 -0.025
3
3
3
2 -0.03203125
3
3
3
2 -0.0015625
2 -0.00390625
2 -0.0078125
2 -0.00078125
2 -0.003125
2 -0.00703125
2 -0.0015625
2 -0.00390625
2 -0.0078125
2 -0.00390625
2 -0.00625
2 -0.01015625
2 -0.0078125
2 -0.01015625
2 -0.0140625
2 -0.013281250000000001
2 -0.015625
2 -0.01953125
2 -0.0203125
2 -0.02265625
2 -0.0265625
2 0
2 0
2 0
2 0
2 0
2 0
2 0
2 0
2 0
2 0
2 0
2 0
2 0
2 0
2 0
2 0
2 0
2 0
2 0
2 0
2 0
2 0
2 0
2 0
2 0
2 0
2 0
2 0
2 0
2 0
2 0
2 0
2 0
2 0
2 0
2 0
2 0
2 0
2 0
2 0
2 0
2 0
2 0
2 0
2 0
k102
5
18
34
50
66
82
98
110
114
119
125
131
136
143
151
159
165
172
180
188
194
201
209
217
223
230
238
246
252
259
267
275
281
287
293
299
303
307
312
317
322
328
334
339
345
351
356
362
368
373
379
385
389
395
401
404
408
412
413
414
415
416
417
418
419
420
421
422
423
424
425
426
427
428
429
430
431
432
433
434
435
436
437
438
439
440
441
442
443
444
445
446
447
448
449
450
451
452
453
454
455
456
J0 7
0 -0.005208333333333333
1 -0.010416666666666666
9 -2
10 0
13 0.5
39 1
61 1
J1 9
0 -0.005208333333333333
1 -0.020833333333333332
2 -0.005208333333333333
9 0
10 0
11 0
13 0
14 0
62 1
J2 9
0 -0.005208333333333333
1 -0.020833333333333332
2 -0.005208333333333333
10 0
11 0
12 0
14 0
15 0
63 1
J3 8
0 -0.005208333333333333
1 -0.020833333333333332
2 -0.005208333333333333
11 0
12 0
15 0
16 0
64 1
J4 9
1 -0.005208333333333333
2 -0.010416666666666666
9 0.5
10 0
13 -2
14 0
17 0.5
42 1
68 1
J5 11
1 -0.005208333333333333
2 -0.020833333333333332
3 -0.005208333333333333
10 0
11 0
13 0
14 0
15 0
17 0
18 0
69 1
J6 11
1 -0.005208333333333333
2 -0.020833333333333332
3 -0.005208333333333333
11 0
12 0
14 0
15 0
16 0
18 0
19 0
70 1
J7 9
1 -0.005208333333333333
2 -0.020833333333333332
3 -0.005208333333333333
12 0
15 0
16 0
19 0
20 0
71 1
J8 9
2 -0.005208333333333333
3 -0.010416666666666666
13 0.5
14 0
17 -2
18 0
21 0.5
45 1
75 1
J9 11
2 -0.005208333333333333
3 -0.020833333333333332
4 -0.005208333333333333
14 0
15 0
17 0
18 0
19 0
21 0
22 0
76 1
J10 11
2 -0.005208333333333333
3 -0.020833333333333332
4 -0.005208333333333333
15 0
16 0
18 0
19 0
20 0
22 0
23 0
77 1
J11 9
2 -0.005208333333333333
3 -0.020833333333333332
4 -0.005208333333333333
16 0
19 0
20 0
23 0
24 0
78 1
J12 9
3 -0.005208333333333333
4 -0.010416666666666666
17 0.5
18 0
21 -2
22 0
25 0.5
48 1
82 1
J13 11
3 -0.005208333333333333
4 -0.020833333333333332
5 -0.005208333333333333
18 0
19 0
21 0
22 0
23 0
25 0
26 0
83 1
J14 11
3 -0.005208333333333333
4 -0.020833333333333332
5 -0.005208333333333333
19 0
20 0
22 0
23 0
24 0
26 0
27 0
84 1
J15 9
3 -0.005208333333333333
4 -0.020833333333333332
5 -0.005208333333333333
20 0
23 0
24 0
27 0
28 0
85 1
J16 9
4 -0.005208333333333333
5 -0.010416666666666666
21 0.5
22 0
25 -2
26 0
29 0.5
51 1
89 1
J17 11
4 -0.005208333333333333
5 -0.020833333333333332
6 -0.005208333333333333
22 0
23 0
25 0
26 0
27 0
29 0
30 0
90 1
J18 11
4 -0.005208333333333333
5 -0.020833333333333332
6 -0.005208333333333333
23 0
24 0
26 0
27 0
28 0
30 0
31 0
91 1
J19 9
4 -0.005208333333333333
5 -0.020833333333333332
6 -0.005208333333333333
24 0
27 0
28 0
31 0
32 0
92 1
J20 9
5 -0.005208333333333333
6 -0.010416666666666666
25 0.5
26 0
29 -2
30 0
33 0.5
54 1
95 1
J21 11
5 -0.005208333333333333
6 -0.020833333333333332
7 -0.005208333333333333
26 0
27 0
29 0
30 0
31 0
33 0
34 0
96 1
J22 11
5 -0.005208333333333333
6 -0.020833333333333332
7 -0.005208333333333333
27 0
28 0
30 0
31 0
32 0
34 0
35 0
97 1
J23 9
5 -0.005208333333333333
6 -0.020833333333333332
7 -0.005208333333333333
28 0
31 0
32 0
35 0
36 0
98 1
J24 8
6 -0.005208333333333333
7 -0.010416666666666666
29 0.5
30 0
33 -2
34 0
57 1
99 1
J25 9
6 -0.005208333333333333
7 -0.020833333333333332
8 -0.005208333333333333
30 0
31 0
33 0
34 0
35 0
100 1
J26 9
6 -0.005208333333333333
7 -0.020833333333333332
8 -0.005208333333333333
31 0
32 0
34 0
35 0
36 0
101 1
J27 7
6 -0.005208333333333333
7 -0.020833333333333332
8 -0.005208333333333333
32 0
35 0
36 0
102 1
J28 2
1 0
10 1
J29 2
1 0
11 1
J30 2
1 0
12 1
J31 2
2 0
14 1
J32 2
2 0
15 1
J33 2
2 0
16 1
J34 2
3 0
18 1
J35 2
3 0
19 1
J36 2
3 0
20 1
J37 2
4 0
22 1
J38 2
4 0
23 1
J39 2
4 0
24 1
J40 2
5 0
26 1
J41 2
5 0
27 1
J42 2
5 0
28 1
J43 2
6 0
30 1
J44 2
6 0
31 1
J45 2
6 0
32 1
J46 2
7 0
34 1
J47 2
7 0
35 1
J48 2
7 0
36 1
J49 4
49 1
52 -4
53 1
55 1
J50 3
52 1
55 -4
56 1
J51 4
53 1
55 1
56 -4
57 1
J52 4
33 1
54 1
56 1
57 -4
J53 2
0 1
1 -1
J54 2
1 1
2 -1
J55 2
2 1
3 -1
J56 2
3 1
4 -1
J57 2
4 1
5 -1
J58 2
5 1
6 -1
J59 2
6 1
7 -1
J60 2
7 1
8 -1
J61 4
37 -4
38 1
40 1
58 1
J62 5
37 1
38 -4
39 1
41 1
59 1
J63 5
9 1
38 1
39 -4
42 1
60 1
J64 5
37 1
40 -4
41 1
43 1
65 1
J65 6
38 1
40 1
41 -4
42 1
44 1
66 1
J66 6
13 1
39 1
41 1
42 -4
45 1
67 1
J67 5
40 1
43 -4
44 1
46 1
72 1
J68 6
41 1
43 1
44 -4
45 1
47 1
73 1
J69 6
17 1
42 1
44 1
45 -4
48 1
74 1
J70 5
43 1
46 -4
47 1
49 1
79 1
J71 6
44 1
46 1
47 -4
48 1
50 1
80 1
J72 6
21 1
45 1
47 1
48 -4
51 1
81 1
J73 5
46 1
49 -4
50 1
52 1
86 1
J74 6
47 1
49 1
50 -4
51 1
53 1
87 1
J75 6
25 1
48 1
50 1
51 -4
54 1
88 1
J76 6
50 1
52 1
53 -4
54 1
56 1
93 1
J77 6
29 1
51 1
53 1
54 -4
57 1
94 1
J78 1
37 1
J79 1
38 1
J80 1
39 1
J81 1
9 1
J82 1
40 1
J83 1
41 1
J84 1
42 1
J85 1
13 1
J86 1
43 1
J87 1
44 1
J88 1
45 1
J89 1
17 1
J90 1
46 1
J91 1
47 1
J92 1
48 1
J93 1
21 1
J94 1
49 1
J95 1
50 1
J96 1
51 1
J97 1
25 1
J98 1
53 1
J99 1
54 1
J100 1
29 1
J101 1
33 1
G0 24
0 0.0625
1 0.125
2 0.125
3 0.125
4 0.125
5 0.125
6 0.125
7 0.125
8 0.0625
13 250
17 250
21 250
25 250
29 250
41 250
42 250
44 250
45 250
47 250
48 250
50 250
51 250
53 250
54 250
